Running for instance ./models/c103.txt
Generating routes...
Execution time:  0.13312425  minutes
Academic license - for non-commercial use only
Warning: constraint name "Cliente esta na rota" has a space
Optimize a model with 26 rows, 5000 columns and 36557 nonzeros
Variable types: 0 continuous, 5000 integer (0 binary)
Coefficient statistics:
  Matrix range     [1e+00, 1e+00]
  Objective range  [3e+01, 2e+02]
  Bounds range     [1e+00, 1e+00]
  RHS range        [1e+00, 2e+01]
Found heuristic solution: objective 736.4501239
Presolve removed 0 rows and 1001 columns
Presolve time: 0.03s
Presolved: 26 rows, 3999 columns, 29431 nonzeros
Found heuristic solution: objective 549.1422529
Variable types: 0 continuous, 3999 integer (3999 binary)

Root relaxation: objective 2.866234e+02, 77 iterations, 0.00 seconds

    Nodes    |    Current Node    |     Objective Bounds      |     Work
 Expl Unexpl |  Obj  Depth IntInf | Incumbent    BestBd   Gap | It/Node Time

     0     0  286.62335    0   16  549.14225  286.62335  47.8%     -    0s
H    0     0                     383.6313436  286.62335  25.3%     -    0s
H    0     0                     323.9993360  286.62335  11.5%     -    0s
H    0     0                     295.6133486  286.62335  3.04%     -    0s
     0     0  287.63779    0   25  295.61335  287.63779  2.70%     -    0s
     0     0  287.63779    0   16  295.61335  287.63779  2.70%     -    0s
     0     0 infeasible    0       295.61335  295.61335  0.00%     -    0s

Cutting planes:
  Gomory: 1
  Clique: 1
  MIR: 1

Explored 1 nodes (191 simplex iterations) in 0.11 seconds
Thread count was 8 (of 8 available processors)

Solution count 5: 295.613 323.999 383.631 ... 694.629

Optimal solution found (tolerance 1.00e-04)
Best objective 2.956133485905e+02, best bound 2.956133485905e+02, gap 0.0000%
23 22 24 20
17 15 18 19 14 12 16
13 10 11
25 8 9 4 1 3 5
Distance: 295.613348591
Execution time:  0.1408308  minutes
